1 -1 2 0
1 -3 -4 0
1 -3 5 0
1 6 -7 0
1 6 -8 0
1 -6 3 0
1 -4 9 0
1 8 -10 0
1 5 -11 0
1 5 -12 0
1 13 -14 0
1 -13 -15 0
1 -16 17 0
1 14 9 0
1 -14 -10 0
1 -18 -19 0
1 18 -13 0
1 -10 -20 0
1 -21 12 0
1 -22 23 0
1 24 -23 0
1 -25 26 0
1 27 25 0
1 -23 -24 0
1 -28 4 0
1 29 4 0
1 29 -30 0
1 -31 32 0
1 33 34 0
1 -34 19 0
1 35 25 0
1 -35 -7 0
1 -35 36 0
1 -26 -37 0
1 26 38 0
1 26 29 0
1 26 31 0
1 -9 14 0
1 -9 -35 0
1 19 35 0
1 19 -39 0
1 40 -19 0
1 40 9 0
1 -40 -41 0
1 32 -19 0
1 39 -42 0
1 39 43 0
1 -15 44 0
1 -15 -17 0
1 17 -45 0
1 -46 6 0
1 46 -47 0
1 46 -48 0
1 45 4 0
1 45 15 0
1 49 -50 0
1 -49 51 0
1 49 41 0
1 -49 48 0
1 52 -53 0
1 -52 -54 0
1 52 -55 0
1 56 -57 0
1 -56 41 0
1 -58 -59 0
1 -58 60 0
1 -61 -57 0
1 55 -62 0
1 54 -48 0
1 63 64 0
1 -63 65 0
1 66 59 0
1 -67 -68 0
1 -60 69 0
1 -59 70 0
1 71 72 0
1 -73 -74 0
1 -75 76 0
1 77 78 0
1 77 79 0
1 -77 -72 0
1 80 -81 0
1 80 -82 0
1 -83 -76 0
1 -79 23 0
1 -84 -85 0
1 86 87 0
1 -86 -88 0
1 89 86 0
1 -90 -91 0
1 -90 92 0
1 76 91 0
1 -76 -83 0
1 76 -88 0
1 93 -94 0
1 93 -95 0
1 -38 27 0
1 38 96 0
1 37 -97 0
1 37 -98 0
1 -99 -42 0
1 -99 100 0
1 99 -79 0
1 -101 -99 0
1 101 -37 0
1 102 103 0
1 -102 -98 0
1 -102 -104 0
1 95 105 0
1 100 -106 0
1 100 94 0
1 107 108 0
1 -42 -99 0
1 42 -101 0
1 -109 -110 0
1 108 -42 0
1 -106 -111 0
1 106 109 0
1 -97 -98 0
1 -112 113 0
1 -114 110 0
1 -115 -34 0
1 -116 42 0
1 113 -117 0
1 113 118 0
1 113 119 0
1 -50 -63 0
1 50 120 0
1 -50 121 0
1 47 122 0
1 -65 -123 0
1 65 124 0
1 123 114 0
1 -123 -125 0
1 126 127 0
1 126 128 0
1 -126 -47 0
1 120 114 0
1 120 129 0
1 62 130 0
1 -62 -123 0
1 -62 -131 0
1 132 133 0
1 124 -134 0
1 -124 62 0
1 -135 -136 0
1 -135 62 0
1 131 -137 0
1 -138 59 0
1 -139 140 0
1 -141 124 0
1 -141 142 0
1 -143 -144 0
1 145 -146 0
1 -145 139 0
1 -133 141 0
1 -133 -147 0
1 148 149 0
1 -148 150 0
1 -151 -145 0
1 142 152 0
1 -142 -153 0
1 -150 -148 0
1 -69 154 0
1 69 -155 0
1 -69 144 0
1 -149 -148 0
1 -156 -157 0
1 -158 -159 0
1 -157 -160 0
1 -157 -161 0
1 -159 160 0
1 159 -158 0
1 162 -163 0
1 81 80 0
1 -164 -84 0
1 165 -81 0
1 -166 164 0
1 -167 168 0
1 167 169 0
1 -168 -170 0
1 78 77 0
1 78 -76 0
1 171 172 0
1 -171 173 0
1 171 -90 0
1 92 -174 0
1 -92 175 0
1 -92 76 0
1 92 -176 0
1 173 -177 0
1 173 178 0
1 179 -180 0
1 181 182 0
1 -181 176 0
1 -181 -183 0
1 -184 177 0
1 184 -82 0
1 91 -174 0
1 -91 175 0
1 91 95 0
1 -91 102 0
1 105 -185 0
1 -105 -173 0
1 -105 -186 0
1 187 -175 0
1 187 -87 0
1 187 -77 0
1 175 188 0
1 -186 91 0
1 -186 -174 0
1 -174 -186 0
1 174 189 0
1 -190 106 0
1 -190 185 0
1 190 -101 0
1 190 191 0
1 104 -101 0
1 -188 -106 0
1 188 -191 0
1 -188 103 0
1 111 -106 0
1 111 192 0
1 193 -194 0
1 -185 89 0
1 195 196 0
1 195 111 0
1 -195 180 0
1 -197 50 0
1 -198 -199 0
1 198 200 0
1 117 -201 0
1 -117 192 0
1 -117 103 0
1 118 -202 0
1 -199 -188 0
1 103 -194 0
1 192 203 0
1 -128 -113 0
1 128 -204 0
1 129 205 0
1 -129 -113 0
1 -129 126 0
1 -206 -207 0
1 -206 208 0
1 205 209 0
1 205 137 0
1 -204 210 0
1 -201 211 0
1 -201 129 0
1 211 -212 0
1 211 -213 0
1 211 -118 0
1 -209 -214 0
1 209 123 0
1 209 -139 0
1 -214 208 0
1 208 215 0
1 216 210 0
1 -216 137 0
1 217 -218 0
1 -219 -220 0
1 -219 -133 0
1 125 -221 0
1 -125 -219 0
1 -125 144 0
1 222 -217 0
1 220 126 0
1 223 219 0
1 144 224 0
1 144 -218 0
1 -144 133 0
1 -221 125 0
1 -221 -222 0
1 -155 225 0
1 -155 125 0
1 226 -219 0
1 226 227 0
1 218 228 0
1 -218 227 0
1 229 230 0
1 229 -219 0
1 -224 219 0
1 -224 229 0
1 -227 -150 0
1 -231 226 0
1 -232 -233 0
1 -234 228 0
1 234 -146 0
1 234 -155 0
1 146 232 0
1 146 -235 0
1 236 231 0
1 -236 -237 0
1 -236 -238 0
1 -225 -239 0
1 -240 -241 0
1 -242 241 0
1 243 -146 0
1 -243 -234 0
1 -244 -228 0
1 -244 -245 0
1 246 -149 0
1 246 -247 0
1 -246 245 0
1 -246 -232 0
1 -248 -249 0
1 -250 -249 0
1 -251 -252 0
1 -252 -248 0
1 252 253 0
1 254 -251 0
1 -254 -255 0
1 -256 -252 0
1 -257 256 0
1 258 259 0
1 253 260 0
1 261 -257 0
1 -261 260 0
1 261 258 0
1 260 -253 0
1 260 251 0
1 262 -255 0
1 -160 167 0
1 -169 263 0
1 264 -167 0
1 -265 -264 0
1 -265 182 0
1 -265 -266 0
1 265 267 0
1 -263 -253 0
1 -263 258 0
1 -170 -87 0
1 268 -165 0
1 269 270 0
1 -269 271 0
1 269 272 0
1 -273 274 0
1 -272 -269 0
1 -272 -177 0
1 -271 275 0
1 -276 -268 0
1 -276 277 0
1 -276 -170 0
1 -276 278 0
1 183 184 0
1 183 174 0
1 274 273 0
1 -274 279 0
1 280 281 0
1 -280 282 0
1 283 -284 0
1 -283 285 0
1 -283 165 0
1 283 -286 0
1 287 -284 0
1 282 288 0
1 -289 288 0
1 -189 -279 0
1 -189 -178 0
1 189 -186 0
1 -202 -290 0
1 -178 -291 0
1 178 -281 0
1 -178 -292 0
1 -178 -207 0
1 -281 194 0
1 -279 293 0
1 279 -294 0
1 279 -295 0
1 293 -202 0
1 -194 296 0
1 194 -185 0
1 -194 192 0
1 203 297 0
1 -291 -298 0
1 -207 281 0
1 207 103 0
1 299 -300 0
1 -299 301 0
1 -299 -302 0
1 299 -103 0
1 -303 -302 0
1 212 -304 0
1 -212 -305 0
1 -213 300 0
1 -213 -210 0
1 213 -211 0
1 -302 -306 0
1 300 307 0
1 -300 -308 0
1 300 -309 0
1 298 212 0
1 196 291 0
1 196 -310 0
1 -196 298 0
1 -309 -311 0
1 306 -312 0
1 306 -313 0
1 -308 314 0
1 308 -300 0
1 304 -315 0
1 304 -309 0
1 -304 316 0
1 -317 -318 0
1 -305 312 0
1 316 -319 0
1 -316 208 0
1 -318 -304 0
1 -320 315 0
1 -320 -316 0
1 -319 -204 0
1 314 -308 0
1 321 322 0
1 321 -211 0
1 233 -323 0
1 233 324 0
1 323 315 0
1 -323 318 0
1 325 -326 0
1 324 -327 0
1 324 328 0
1 324 -329 0
1 230 224 0
1 230 -218 0
1 230 -330 0
1 230 226 0
1 -230 331 0
1 238 323 0
1 -238 332 0
1 -238 -333 0
1 332 -334 0
1 -332 237 0
1 335 336 0
1 330 -337 0
1 -330 338 0
1 331 -339 0
1 331 -340 0
1 -331 341 0
1 239 -342 0
1 -235 -146 0
1 -247 -343 0
1 344 335 0
1 -345 -346 0
1 -345 239 0
1 347 -348 0
1 347 238 0
1 349 239 0
1 350 -339 0
1 -350 344 0
1 351 -352 0
1 -351 343 0
1 353 -354 0
1 -348 345 0
1 -348 354 0
1 352 346 0
1 -343 355 0
1 356 -247 0
1 -356 -343 0
1 -357 -358 0
1 -357 -359 0
1 -357 360 0
1 361 -354 0
1 -354 -244 0
1 359 357 0
1 -358 360 0
1 362 261 0
1 -363 259 0
1 270 364 0
1 -270 365 0
1 364 366 0
1 -364 -367 0
1 -364 -368 0
1 -364 -362 0
1 364 369 0
1 -367 -370 0
1 -367 -368 0
1 370 371 0
1 -369 372 0
1 -369 266 0
1 -366 371 0
1 366 -373 0
1 374 375 0
1 -374 276 0
1 -372 288 0
1 -375 -270 0
1 -371 262 0
1 -288 273 0
1 278 272 0
1 376 289 0
1 377 -275 0
1 378 379 0
1 -378 284 0
1 -378 -288 0
1 380 -284 0
1 380 -376 0
1 380 288 0
1 -373 -381 0
1 284 -293 0
1 294 -291 0
1 -294 380 0
1 382 -292 0
1 382 377 0
1 -382 383 0
1 383 -294 0
1 383 -384 0
1 275 385 0
1 -277 386 0
1 -277 -387 0
1 388 -379 0
1 388 281 0
1 -388 -296 0
1 292 303 0
1 -292 -286 0
1 292 -386 0
1 -389 -390 0
1 -389 391 0
1 -392 -213 0
1 286 -310 0
1 393 -394 0
1 -395 292 0
1 -395 396 0
1 397 398 0
1 -310 -384 0
1 310 -290 0
1 310 -398 0
1 -313 390 0
1 313 -399 0
1 400 -401 0
1 400 313 0
1 -402 -401 0
1 403 -404 0
1 -403 -405 0
1 403 -400 0
1 403 -406 0
1 391 310 0
1 407 -305 0
1 407 -402 0
1 407 -302 0
1 307 -394 0
1 307 300 0
1 -307 -305 0
1 -408 -409 0
1 -410 -399 0
1 -411 -412 0
1 -413 -313 0
1 399 -404 0
1 -399 -400 0
1 414 -415 0
1 414 317 0
1 -416 312 0
1 417 -418 0
1 322 -419 0
1 -420 410 0
1 -420 421 0
1 -419 300 0
1 -422 -410 0
1 415 423 0
1 415 -424 0
1 425 -319 0
1 421 333 0
1 333 426 0
1 333 -427 0
1 428 322 0
1 -428 -429 0
1 428 -328 0
1 430 -425 0
1 430 -421 0
1 430 -328 0
1 431 417 0
1 -431 -432 0
1 433 -434 0
1 433 -426 0
1 -433 -324 0
1 329 418 0
1 329 -427 0
1 -337 -426 0
1 337 -427 0
1 340 -434 0
1 -340 418 0
1 -426 -433 0
1 -434 435 0
1 434 -329 0
1 -339 -426 0
1 -339 334 0
1 -339 351 0
1 436 437 0
1 436 438 0
1 436 -439 0
1 440 -436 0
1 326 441 0
1 -326 442 0
1 -443 334 0
1 355 -350 0
1 444 338 0
1 441 356 0
1 441 -338 0
1 441 -343 0
1 -445 361 0
1 -445 -446 0
1 445 439 0
1 -447 -442 0
1 439 445 0
1 -338 436 0
1 341 -355 0
1 448 372 0
1 -448 373 0
1 -449 -450 0
1 451 -452 0
1 -381 -453 0
1 -454 449 0
1 -455 451 0
1 453 -381 0
1 -452 448 0
1 452 456 0
1 379 388 0
1 386 457 0
1 -386 -277 0
1 -458 -459 0
1 458 460 0
1 461 381 0
1 -461 462 0
1 -385 463 0
1 -384 464 0
1 465 -457 0
1 -465 466 0
1 -459 -393 0
1 -459 -465 0
1 -459 -395 0
1 467 405 0
1 -464 459 0
1 464 384 0
1 -463 -466 0
1 466 462 0
1 468 394 0
1 -394 390 0
1 394 -469 0
1 394 387 0
1 -394 395 0
1 -470 -471 0
1 -405 -472 0
1 -405 403 0
1 469 -404 0
1 -469 394 0
1 473 459 0
1 -473 468 0
1 474 394 0
1 387 -277 0
1 -387 -470 0
1 387 468 0
1 406 -401 0
1 -406 475 0
1 -406 -476 0
1 -406 -402 0
1 -477 -478 0
1 -477 -479 0
1 478 480 0
1 476 481 0
1 -476 405 0
1 476 477 0
1 -482 483 0
1 -482 404 0
1 -482 484 0
1 412 -485 0
1 412 -486 0
1 -412 411 0
1 -424 486 0
1 424 487 0
1 -481 488 0
1 480 478 0
1 -480 -432 0
1 486 424 0
1 489 -490 0
1 -491 -415 0
1 491 419 0
1 -491 432 0
1 492 486 0
1 -492 487 0
1 492 493 0
1 492 480 0
1 488 -494 0
1 -488 495 0
1 -496 497 0
1 487 432 0
1 -429 -430 0
1 -498 429 0
1 495 -499 0
1 500 499 0
1 -500 -501 0
1 -493 -419 0
1 -502 422 0
1 -423 497 0
1 -503 -438 0
1 435 504 0
1 505 -506 0
1 -505 446 0
1 -446 507 0
1 508 446 0
1 507 499 0
1 471 -466 0
1 -472 509 0
1 510 467 0
1 -479 -511 0
1 -479 512 0
1 513 -478 0
1 513 514 0
1 515 516 0
1 -512 -483 0
1 -512 516 0
1 -512 517 0
1 512 -458 0
1 -512 -510 0
1 -512 -471 0
1 518 -519 0
1 -518 -469 0
1 -520 -514 0
1 520 521 0
1 520 424 0
1 520 -522 0
1 -514 -483 0
1 519 523 0
1 -519 -524 0
1 -525 518 0
1 525 513 0
1 525 -523 0
1 525 484 0
1 -525 479 0
1 525 -526 0
1 -490 -482 0
1 -490 475 0
1 527 528 0
1 529 -530 0
1 529 -514 0
1 521 531 0
1 -528 -527 0
1 532 533 0
1 -530 -533 0
1 534 429 0
1 -534 535 0
1 531 -528 0
1 -536 -537 0
1 538 -496 0
1 539 -540 0
1 -541 -536 0
1 541 529 0
1 497 -496 0
1 -542 -543 0
1 542 446 0
1 -542 502 0
1 544 -545 0
1 537 -536 0
1 -537 546 0
1 -517 -519 0
1 547 548 0
1 -547 549 0
1 -548 517 0
1 -550 -517 0
1 551 547 0
1 -524 -530 0
1 -552 -553 0
1 552 -554 0
1 552 530 0
1 -555 540 0
1 555 526 0
1 549 556 0
1 -557 558 0
1 -557 -554 0
1 559 558 0
1 -540 -541 0
1 540 549 0
1 560 -540 0
1 561 560 0
1 -554 -559 0
1 562 557 0
